oqmd_id_1215777
1.0
1.495 -2.589 0.000
-1.495 -2.589 0.000
0.000 1.726 -2.831
He
2
Direct
0.751 0.751 0.252
0.249 0.249 0.748
