oqmd_id_1215153
1.0
1.331 1.331 1.331
1.331 -1.331 -1.331
-1.331 1.331 -1.331
He
1
Direct
0 0 0
