oqmd_id_1214975
1.0
4.270 0.000 0.000
0.000 4.270 0.000
0.000 0.000 4.270
He
8
Direct
0 0 0
0.5 0.25 0
0.5 0.75 0
0 0.5 0.25
0.25 0 0.5
0.75 0 0.5
0.5 0.5 0.5
0 0.5 0.75
