oqmd_id_1215421
1.0
2.387 0.000 0.000
-1.194 2.067 0.000
0.000 0.000 7.682
He
4
Direct
0 0 0
0.333 0.667 0.25
0 0 0.5
0.667 0.333 0.75
