oqmd_id_1215688
1.0
0.000 -2.343 0.000
-2.343 0.000 0.000
1.171 1.171 -1.789
He
1
Direct
0 0 0
