oqmd_id_1214530
1.0
0.000 1.698 -1.698
1.698 0.000 1.698
0.000 -1.698 -1.698
He
1
Direct
0 0 0
