oqmd_id_1215331
1.0
2.370 0.000 0.000
-1.185 2.052 0.000
0.000 0.000 3.861
He
2
Direct
0.333 0.667 0.25
0.667 0.333 0.75
