oqmd_id_1214708
1.0
-1.864 -3.288 0.000
-1.864 3.288 0.000
0.000 0.000 -3.709
He
4
Direct
0.156 0.844 0.0809
0.656 0.344 0.419
0.344 0.656 0.581
0.844 0.156 0.919
