oqmd_id_1215955
1.0
3.508 0.000 0.000
-1.754 3.038 0.000
0.000 0.000 4.378
He
4
Direct
0 0 0.25
0.333 0.667 0.25
0 0 0.75
0.667 0.333 0.75
