oqmd_id_1215599
1.0
0.000 0.000 -2.644
2.423 2.423 1.322
2.423 -2.423 -1.322
He
2
Direct
0 0 0
0.25 0.5 0.5
