oqmd_id_1214797
1.0
4.126 4.126 4.126
4.126 -4.126 -4.126
-4.126 4.126 -4.126
He
29
Direct
0 0 0
0.642 0 0
0.375 0.19 0
0.19 0.375 0
0.684 0.405 0
0 0.642 0
0.405 0.684 0
0.81 0.81 0.184
0.375 0 0.19
0 0.375 0.19
0.595 0.595 0.279
0.721 0.316 0.316
0.316 0.721 0.316
0.358 0.358 0.358
0.19 0 0.375
0 0.19 0.375
0.684 0 0.405
0 0.684 0.405
0.595 0.279 0.595
0.279 0.595 0.595
0.816 0.625 0.625
0.625 0.816 0.625
0 0 0.642
0.405 0 0.684
0 0.405 0.684
0.316 0.316 0.721
0.81 0.184 0.81
0.184 0.81 0.81
0.625 0.625 0.816
