oqmd_id_1215064
1.0
0.000 0.000 2.675
3.659 0.000 0.000
1.830 4.159 0.000
He
4
Direct
0.998 0.366 0.268
0.502 0.866 0.268
0.498 0.134 0.732
0.00221 0.634 0.732
