oqmd_id_1214619
1.0
0.000 -1.451 1.757
-1.257 0.725 1.757
-1.257 -0.725 -1.757
He
1
Direct
0 0 0
