oqmd_id_4177
1.0
1.705 -1.705 0.000
-1.705 0.000 -1.705
1.705 1.705 0.000
He
1
Direct
0 0 0
