oqmd_id_8394
1.0
2.391 0.000 0.000
-1.195 2.070 0.000
0.000 0.000 3.872
He
2
Direct
0.333 0.667 0.25
0.667 0.333 0.75
