oqmd_id_1215242
1.0
2.268 -0.001 0.000
1.133 2.139 0.000
0.000 0.000 3.863
He
2
Direct
0.865 0.27 0.25
0.135 0.73 0.75
