oqmd_id_1215510
1.0
0.000 2.458 -2.458
2.458 0.000 2.458
0.000 -2.458 -2.458
He
2
Direct
0 0 0
0.25 0.5 0.75
