oqmd_id_8392, icsd_id_44394
1.0
0.000 0.000 2.202
-2.330 0.000 0.000
1.165 -2.018 0.000
He
1
Direct
0 0 0
