oqmd_id_8085, icsd_id_43426
1.0
2.386 0.000 0.000
-1.193 2.066 0.000
0.000 0.000 3.893
He
2
Direct
0.333 0.667 0.25
0.667 0.333 0.75
