oqmd_id_4177, icsd_id_22384
1.0
1.705 -1.705 0.000
-1.705 0.000 -1.705
1.705 1.705 0.000
He
1
Direct
0 0 0
