oqmd_id_1215866
1.0
3.226 0.000 0.000
-1.613 2.794 0.000
0.000 0.000 3.608
He
3
Direct
0.666 0.666 0
0.334 0 0.333
0 0.334 0.667
