oqmd_id_8084
1.0
1.352 1.352 1.352
1.352 -1.352 -1.352
-1.352 1.352 -1.352
He
1
Direct
0 0 0
